! xtb2 Opt

%maxcore 10000          # Alloue 10000 Mo de RAM pour le calcul
%pal nprocs 5 end       # Utilise 5 cœurs pour le calcul parallèle

* xyz 0 1               # Début des coordonnées : charge 0, multiplicité 1 (singulet)
 B         -0.0000588054       -1.1509072896        0.0002381106
 N          1.2462647047       -0.2288132598       -0.0002576021
 C          2.5174513363       -0.6070947870       -0.0005950450
 C          3.3567037474        0.5165838601       -0.0008987182
 C          2.5403863936        1.6239893846        0.0003895773
 C          1.2054785539        1.1503293224        0.0002434106
 C          0.0001660852        1.8331139148        0.0006579695
 C         -1.2052029343        1.1504537585        0.0002931621
 N         -1.2462494911       -0.2287412296       -0.0003022231
 C         -2.5174502265       -0.6068297121       -0.0011832256
 C         -3.3565197650        0.5169911982        0.0004419809
 C         -2.5400348599        1.6243309774       -0.0008237363
 F         -0.0003624205       -1.9368370964        1.1301651314
 F         -0.0002792778       -1.9381276540       -1.1287364962
 H          2.7819596677       -1.6472431452       -0.0007530647
 H          4.4284190102        0.4953891219       -0.0016689414
 H          2.8308733150        2.6562188051        0.0008734688
 H          0.0002669119        2.9127532151        0.0008801190
 H         -2.7821338303       -1.6469786765       -0.0020221445
 H         -4.4281498168        0.4959572232        0.0010731401
 H         -2.8303786337        2.6566027317       -0.0025131538
*
