! xtb2 Opt

%maxcore 10000          # Alloue 10000 Mo de RAM pour le calcul
%pal nprocs 5 end       # Utilise 5 cœurs pour le calcul parallèle

* xyz 0 1               # Début des coordonnées : charge 0, multiplicité 1 (singulet)
B      0.066097   -1.312457    0.724497
N      1.253131   -0.520662    0.175009
C      2.560398   -0.884831    0.262699
C      3.359893    0.073920   -0.345879
C      2.490420    1.050289   -0.815696
C      1.211466    0.654542   -0.479980
C     -0.108715    1.239845   -0.690487
C     -1.262613    0.723958   -0.298585
N     -1.195221   -0.517706    0.391355
C     -2.416206   -0.852243    0.687573
C     -3.318658    0.185171    0.186474
C     -2.650287    1.155536   -0.416918
F      0.171663   -1.361571    2.179069
F     -0.019245   -2.634192    0.146780
H      3.032868   -1.766676    0.714885
H      4.432390    0.111258   -0.462333
H      2.680334    1.977728   -1.352437
H     -0.164406    2.184450   -1.214992
H     -2.760112   -1.752033    1.222510
H     -4.409788    0.184220    0.284158
H     -2.953410    2.061455   -0.897702
*
